(set-option :produce-models true)
(set-logic all)
(define-fun s1 () int 75)
(define-fun s3 () int 5)
(define-fun s5 () int 6)
(define-fun s7 () int 67)
(declare-fun s0 () int)
(declare-fun s12 () int)
(declare-fun s13 () int)
(define-fun s2 () bool (<= s0 s1))
(define-fun s4 () bool (>= s0 s3))
(define-fun s6 () bool (distinct s0 s5))
(define-fun s8 () bool (distinct s0 s7))
(define-fun s9 () bool (and s6 s8))
(define-fun s10 () bool (and s4 s9))
(define-fun s11 () bool (and s2 s10))
(assert s11)
(assert (= s0 s12))
(minimize s12)
(assert (= s0 s13))
(maximize s13)
(set-option :opt.priority box)
(check-sat)